NAME: FLS_676.hcp
COMMENT: 
TYPE: HCP
DIMENSION: 676
EDGE_DATA_FORMAT : EDGE_LIST
EDGE_DATA_SECTION
1 2
1 3
1 18
1 19
2 1
2 3
2 20
2 35
3 1
3 2
3 50
3 51
4 5
4 13
4 19
4 67
5 4
5 6
5 7
5 19
6 5
6 7
6 11
6 16
7 5
7 6
7 8
7 19
8 7
8 9
8 14
8 19
9 8
9 10
9 18
9 19
10 9
10 11
10 12
10 19
11 6
11 10
11 12
11 16
12 10
12 11
12 13
12 19
13 4
13 12
13 14
13 19
14 8
14 13
14 15
14 19
15 14
15 16
15 17
15 19
16 6
16 11
16 15
16 17
17 15
17 16
17 18
17 19
18 1
18 9
18 17
18 19
19 1
19 4
19 5
19 7
19 8
19 9
19 10
19 12
19 13
19 14
19 15
19 17
19 18
19 152
20 2
20 21
20 29
20 35
21 20
21 22
21 23
21 35
22 21
22 23
22 27
22 32
23 21
23 22
23 24
23 35
24 23
24 25
24 30
24 35
25 24
25 26
25 34
25 35
26 25
26 27
26 28
26 35
27 22
27 26
27 28
27 32
28 26
28 27
28 29
28 35
29 20
29 28
29 30
29 35
30 24
30 29
30 31
30 35
31 30
31 32
31 33
31 35
32 22
32 27
32 31
32 33
33 31
33 32
33 34
33 35
34 25
34 33
34 35
34 66
35 2
35 20
35 21
35 23
35 24
35 25
35 26
35 28
35 29
35 30
35 31
35 33
35 34
35 82
36 37
36 45
36 51
36 169
37 36
37 38
37 39
37 51
38 37
38 39
38 43
38 48
39 37
39 38
39 40
39 51
40 39
40 41
40 46
40 51
41 40
41 42
41 50
41 51
42 41
42 43
42 44
42 51
43 38
43 42
43 44
43 48
44 42
44 43
44 45
44 51
45 36
45 44
45 46
45 51
46 40
46 45
46 47
46 51
47 46
47 48
47 49
47 51
48 38
48 43
48 47
48 49
49 47
49 48
49 50
49 51
50 3
50 41
50 49
50 51
51 3
51 36
51 37
51 39
51 40
51 41
51 42
51 44
51 45
51 46
51 47
51 49
51 50
51 83
52 53
52 61
52 67
52 169
53 52
53 54
53 55
53 67
54 53
54 55
54 59
54 64
55 53
55 54
55 56
55 67
56 55
56 57
56 62
56 67
57 56
57 58
57 66
57 67
58 57
58 59
58 60
58 67
59 54
59 58
59 60
59 64
60 58
60 59
60 61
60 67
61 52
61 60
61 62
61 67
62 56
62 61
62 63
62 67
63 62
63 64
63 65
63 67
64 54
64 59
64 63
64 65
65 63
65 64
65 66
65 67
66 34
66 57
66 65
66 67
67 4
67 52
67 53
67 55
67 56
67 57
67 58
67 60
67 61
67 62
67 63
67 65
67 66
67 590
68 69
68 77
68 83
68 168
69 68
69 70
69 71
69 83
70 69
70 71
70 75
70 80
71 69
71 70
71 72
71 83
72 71
72 73
72 78
72 83
73 72
73 74
73 82
73 83
74 73
74 75
74 76
74 83
75 70
75 74
75 76
75 80
76 74
76 75
76 77
76 83
77 68
77 76
77 78
77 83
78 72
78 77
78 79
78 83
79 78
79 80
79 81
79 83
80 70
80 75
80 79
80 81
81 79
81 80
81 82
81 83
82 35
82 73
82 81
82 83
83 51
83 68
83 69
83 71
83 72
83 73
83 74
83 76
83 77
83 78
83 79
83 81
83 82
83 236
84 86
84 88
84 103
84 104
85 87
85 104
85 153
85 169
86 84
86 88
86 105
86 120
87 85
87 121
87 137
87 169
88 84
88 86
88 135
88 136
89 90
89 98
89 104
89 152
90 89
90 91
90 92
90 104
91 90
91 92
91 96
91 101
92 90
92 91
92 93
92 104
93 92
93 94
93 99
93 104
94 93
94 95
94 103
94 104
95 94
95 96
95 97
95 104
96 91
96 95
96 97
96 101
97 95
97 96
97 98
97 104
98 89
98 97
98 99
98 104
99 93
99 98
99 100
99 104
100 99
100 101
100 102
100 104
101 91
101 96
101 100
101 102
102 100
102 101
102 103
102 104
103 84
103 94
103 102
103 104
104 84
104 85
104 89
104 90
104 92
104 93
104 94
104 95
104 97
104 98
104 99
104 100
104 102
104 103
105 86
105 106
105 114
105 120
106 105
106 107
106 108
106 120
107 106
107 108
107 112
107 117
108 106
108 107
108 109
108 120
109 108
109 110
109 115
109 120
110 109
110 111
110 119
110 120
111 110
111 112
111 113
111 120
112 107
112 111
112 113
112 117
113 111
113 112
113 114
113 120
114 105
114 113
114 115
114 120
115 109
115 114
115 116
115 120
116 115
116 117
116 118
116 120
117 107
117 112
117 116
117 118
118 116
118 117
118 119
118 120
119 110
119 118
119 120
119 151
120 86
120 105
120 106
120 108
120 109
120 110
120 111
120 113
120 114
120 115
120 116
120 118
120 119
120 167
121 87
121 122
121 130
121 136
122 121
122 123
122 124
122 136
123 122
123 124
123 128
123 133
124 122
124 123
124 125
124 136
125 124
125 126
125 131
125 136
126 125
126 127
126 135
126 136
127 126
127 128
127 129
127 136
128 123
128 127
128 129
128 133
129 127
129 128
129 130
129 136
130 121
130 129
130 131
130 136
131 125
131 130
131 132
131 136
132 131
132 133
132 134
132 136
133 123
133 128
133 132
133 134
134 132
134 133
134 135
134 136
135 88
135 126
135 134
135 136
136 88
136 121
136 122
136 124
136 125
136 126
136 127
136 129
136 130
136 131
136 132
136 134
136 135
136 168
137 87
137 138
137 146
137 152
138 137
138 139
138 140
138 152
139 138
139 140
139 144
139 149
140 138
140 139
140 141
140 152
141 140
141 142
141 147
141 152
142 141
142 143
142 151
142 152
143 142
143 144
143 145
143 152
144 139
144 143
144 145
144 149
145 143
145 144
145 146
145 152
146 137
146 145
146 147
146 152
147 141
147 146
147 148
147 152
148 147
148 149
148 150
148 152
149 139
149 144
149 148
149 150
150 148
150 149
150 151
150 152
151 119
151 142
151 150
151 152
152 19
152 89
152 137
152 138
152 140
152 141
152 142
152 143
152 145
152 146
152 147
152 148
152 150
152 151
153 85
153 154
153 162
153 168
154 153
154 155
154 156
154 168
155 154
155 156
155 160
155 165
156 154
156 155
156 157
156 168
157 156
157 158
157 163
157 168
158 157
158 159
158 167
158 168
159 158
159 160
159 161
159 168
160 155
160 159
160 161
160 165
161 159
161 160
161 162
161 168
162 153
162 161
162 163
162 168
163 157
163 162
163 164
163 168
164 163
164 165
164 166
164 168
165 155
165 160
165 164
165 166
166 164
166 165
166 167
166 168
167 120
167 158
167 166
167 168
168 68
168 136
168 153
168 154
168 156
168 157
168 158
168 159
168 161
168 162
168 163
168 164
168 166
168 167
169 36
169 52
169 85
169 87
170 171
170 172
170 187
170 188
171 170
171 172
171 189
171 204
172 170
172 171
172 219
172 220
173 174
173 182
173 188
173 236
174 173
174 175
174 176
174 188
175 174
175 176
175 180
175 185
176 174
176 175
176 177
176 188
177 176
177 178
177 183
177 188
178 177
178 179
178 187
178 188
179 178
179 180
179 181
179 188
180 175
180 179
180 181
180 185
181 179
181 180
181 182
181 188
182 173
182 181
182 183
182 188
183 177
183 182
183 184
183 188
184 183
184 185
184 186
184 188
185 175
185 180
185 184
185 186
186 184
186 185
186 187
186 188
187 170
187 178
187 186
187 188
188 170
188 173
188 174
188 176
188 177
188 178
188 179
188 181
188 182
188 183
188 184
188 186
188 187
188 321
189 171
189 190
189 198
189 204
190 189
190 191
190 192
190 204
191 190
191 192
191 196
191 201
192 190
192 191
192 193
192 204
193 192
193 194
193 199
193 204
194 193
194 195
194 203
194 204
195 194
195 196
195 197
195 204
196 191
196 195
196 197
196 201
197 195
197 196
197 198
197 204
198 189
198 197
198 199
198 204
199 193
199 198
199 200
199 204
200 199
200 201
200 202
200 204
201 191
201 196
201 200
201 202
202 200
202 201
202 203
202 204
203 194
203 202
203 204
203 235
204 171
204 189
204 190
204 192
204 193
204 194
204 195
204 197
204 198
204 199
204 200
204 202
204 203
204 251
205 206
205 214
205 220
205 338
206 205
206 207
206 208
206 220
207 206
207 208
207 212
207 217
208 206
208 207
208 209
208 220
209 208
209 210
209 215
209 220
210 209
210 211
210 219
210 220
211 210
211 212
211 213
211 220
212 207
212 211
212 213
212 217
213 211
213 212
213 214
213 220
214 205
214 213
214 215
214 220
215 209
215 214
215 216
215 220
216 215
216 217
216 218
216 220
217 207
217 212
217 216
217 218
218 216
218 217
218 219
218 220
219 172
219 210
219 218
219 220
220 172
220 205
220 206
220 208
220 209
220 210
220 211
220 213
220 214
220 215
220 216
220 218
220 219
220 252
221 222
221 230
221 236
221 338
222 221
222 223
222 224
222 236
223 222
223 224
223 228
223 233
224 222
224 223
224 225
224 236
225 224
225 226
225 231
225 236
226 225
226 227
226 235
226 236
227 226
227 228
227 229
227 236
228 223
228 227
228 229
228 233
229 227
229 228
229 230
229 236
230 221
230 229
230 231
230 236
231 225
231 230
231 232
231 236
232 231
232 233
232 234
232 236
233 223
233 228
233 232
233 234
234 232
234 233
234 235
234 236
235 203
235 226
235 234
235 236
236 83
236 173
236 221
236 222
236 224
236 225
236 226
236 227
236 229
236 230
236 231
236 232
236 234
236 235
237 238
237 246
237 252
237 337
238 237
238 239
238 240
238 252
239 238
239 240
239 244
239 249
240 238
240 239
240 241
240 252
241 240
241 242
241 247
241 252
242 241
242 243
242 251
242 252
243 242
243 244
243 245
243 252
244 239
244 243
244 245
244 249
245 243
245 244
245 246
245 252
246 237
246 245
246 247
246 252
247 241
247 246
247 248
247 252
248 247
248 249
248 250
248 252
249 239
249 244
249 248
249 250
250 248
250 249
250 251
250 252
251 204
251 242
251 250
251 252
252 220
252 237
252 238
252 240
252 241
252 242
252 243
252 245
252 246
252 247
252 248
252 250
252 251
252 405
253 255
253 257
253 272
253 273
254 256
254 273
254 322
254 338
255 253
255 257
255 274
255 289
256 254
256 290
256 306
256 338
257 253
257 255
257 304
257 305
258 259
258 267
258 273
258 321
259 258
259 260
259 261
259 273
260 259
260 261
260 265
260 270
261 259
261 260
261 262
261 273
262 261
262 263
262 268
262 273
263 262
263 264
263 272
263 273
264 263
264 265
264 266
264 273
265 260
265 264
265 266
265 270
266 264
266 265
266 267
266 273
267 258
267 266
267 268
267 273
268 262
268 267
268 269
268 273
269 268
269 270
269 271
269 273
270 260
270 265
270 269
270 271
271 269
271 270
271 272
271 273
272 253
272 263
272 271
272 273
273 253
273 254
273 258
273 259
273 261
273 262
273 263
273 264
273 266
273 267
273 268
273 269
273 271
273 272
274 255
274 275
274 283
274 289
275 274
275 276
275 277
275 289
276 275
276 277
276 281
276 286
277 275
277 276
277 278
277 289
278 277
278 279
278 284
278 289
279 278
279 280
279 288
279 289
280 279
280 281
280 282
280 289
281 276
281 280
281 282
281 286
282 280
282 281
282 283
282 289
283 274
283 282
283 284
283 289
284 278
284 283
284 285
284 289
285 284
285 286
285 287
285 289
286 276
286 281
286 285
286 287
287 285
287 286
287 288
287 289
288 279
288 287
288 289
288 320
289 255
289 274
289 275
289 277
289 278
289 279
289 280
289 282
289 283
289 284
289 285
289 287
289 288
289 336
290 256
290 291
290 299
290 305
291 290
291 292
291 293
291 305
292 291
292 293
292 297
292 302
293 291
293 292
293 294
293 305
294 293
294 295
294 300
294 305
295 294
295 296
295 304
295 305
296 295
296 297
296 298
296 305
297 292
297 296
297 298
297 302
298 296
298 297
298 299
298 305
299 290
299 298
299 300
299 305
300 294
300 299
300 301
300 305
301 300
301 302
301 303
301 305
302 292
302 297
302 301
302 303
303 301
303 302
303 304
303 305
304 257
304 295
304 303
304 305
305 257
305 290
305 291
305 293
305 294
305 295
305 296
305 298
305 299
305 300
305 301
305 303
305 304
305 337
306 256
306 307
306 315
306 321
307 306
307 308
307 309
307 321
308 307
308 309
308 313
308 318
309 307
309 308
309 310
309 321
310 309
310 311
310 316
310 321
311 310
311 312
311 320
311 321
312 311
312 313
312 314
312 321
313 308
313 312
313 314
313 318
314 312
314 313
314 315
314 321
315 306
315 314
315 316
315 321
316 310
316 315
316 317
316 321
317 316
317 318
317 319
317 321
318 308
318 313
318 317
318 319
319 317
319 318
319 320
319 321
320 288
320 311
320 319
320 321
321 188
321 258
321 306
321 307
321 309
321 310
321 311
321 312
321 314
321 315
321 316
321 317
321 319
321 320
322 254
322 323
322 331
322 337
323 322
323 324
323 325
323 337
324 323
324 325
324 329
324 334
325 323
325 324
325 326
325 337
326 325
326 327
326 332
326 337
327 326
327 328
327 336
327 337
328 327
328 329
328 330
328 337
329 324
329 328
329 330
329 334
330 328
330 329
330 331
330 337
331 322
331 330
331 332
331 337
332 326
332 331
332 333
332 337
333 332
333 334
333 335
333 337
334 324
334 329
334 333
334 335
335 333
335 334
335 336
335 337
336 289
336 327
336 335
336 337
337 237
337 305
337 322
337 323
337 325
337 326
337 327
337 328
337 330
337 331
337 332
337 333
337 335
337 336
338 205
338 221
338 254
338 256
339 340
339 341
339 356
339 357
340 339
340 341
340 358
340 373
341 339
341 340
341 388
341 389
342 343
342 351
342 357
342 405
343 342
343 344
343 345
343 357
344 343
344 345
344 349
344 354
345 343
345 344
345 346
345 357
346 345
346 347
346 352
346 357
347 346
347 348
347 356
347 357
348 347
348 349
348 350
348 357
349 344
349 348
349 350
349 354
350 348
350 349
350 351
350 357
351 342
351 350
351 352
351 357
352 346
352 351
352 353
352 357
353 352
353 354
353 355
353 357
354 344
354 349
354 353
354 355
355 353
355 354
355 356
355 357
356 339
356 347
356 355
356 357
357 339
357 342
357 343
357 345
357 346
357 347
357 348
357 350
357 351
357 352
357 353
357 355
357 356
357 490
358 340
358 359
358 367
358 373
359 358
359 360
359 361
359 373
360 359
360 361
360 365
360 370
361 359
361 360
361 362
361 373
362 361
362 363
362 368
362 373
363 362
363 364
363 372
363 373
364 363
364 365
364 366
364 373
365 360
365 364
365 366
365 370
366 364
366 365
366 367
366 373
367 358
367 366
367 368
367 373
368 362
368 367
368 369
368 373
369 368
369 370
369 371
369 373
370 360
370 365
370 369
370 371
371 369
371 370
371 372
371 373
372 363
372 371
372 373
372 404
373 340
373 358
373 359
373 361
373 362
373 363
373 364
373 366
373 367
373 368
373 369
373 371
373 372
373 420
374 375
374 383
374 389
374 507
375 374
375 376
375 377
375 389
376 375
376 377
376 381
376 386
377 375
377 376
377 378
377 389
378 377
378 379
378 384
378 389
379 378
379 380
379 388
379 389
380 379
380 381
380 382
380 389
381 376
381 380
381 382
381 386
382 380
382 381
382 383
382 389
383 374
383 382
383 384
383 389
384 378
384 383
384 385
384 389
385 384
385 386
385 387
385 389
386 376
386 381
386 385
386 387
387 385
387 386
387 388
387 389
388 341
388 379
388 387
388 389
389 341
389 374
389 375
389 377
389 378
389 379
389 380
389 382
389 383
389 384
389 385
389 387
389 388
389 421
390 391
390 399
390 405
390 507
391 390
391 392
391 393
391 405
392 391
392 393
392 397
392 402
393 391
393 392
393 394
393 405
394 393
394 395
394 400
394 405
395 394
395 396
395 404
395 405
396 395
396 397
396 398
396 405
397 392
397 396
397 398
397 402
398 396
398 397
398 399
398 405
399 390
399 398
399 400
399 405
400 394
400 399
400 401
400 405
401 400
401 402
401 403
401 405
402 392
402 397
402 401
402 403
403 401
403 402
403 404
403 405
404 372
404 395
404 403
404 405
405 252
405 342
405 390
405 391
405 393
405 394
405 395
405 396
405 398
405 399
405 400
405 401
405 403
405 404
406 407
406 415
406 421
406 506
407 406
407 408
407 409
407 421
408 407
408 409
408 413
408 418
409 407
409 408
409 410
409 421
410 409
410 411
410 416
410 421
411 410
411 412
411 420
411 421
412 411
412 413
412 414
412 421
413 408
413 412
413 414
413 418
414 412
414 413
414 415
414 421
415 406
415 414
415 416
415 421
416 410
416 415
416 417
416 421
417 416
417 418
417 419
417 421
418 408
418 413
418 417
418 419
419 417
419 418
419 420
419 421
420 373
420 411
420 419
420 421
421 389
421 406
421 407
421 409
421 410
421 411
421 412
421 414
421 415
421 416
421 417
421 419
421 420
421 574
422 424
422 426
422 441
422 442
423 425
423 442
423 491
423 507
424 422
424 426
424 443
424 458
425 423
425 459
425 475
425 507
426 422
426 424
426 473
426 474
427 428
427 436
427 442
427 490
428 427
428 429
428 430
428 442
429 428
429 430
429 434
429 439
430 428
430 429
430 431
430 442
431 430
431 432
431 437
431 442
432 431
432 433
432 441
432 442
433 432
433 434
433 435
433 442
434 429
434 433
434 435
434 439
435 433
435 434
435 436
435 442
436 427
436 435
436 437
436 442
437 431
437 436
437 438
437 442
438 437
438 439
438 440
438 442
439 429
439 434
439 438
439 440
440 438
440 439
440 441
440 442
441 422
441 432
441 440
441 442
442 422
442 423
442 427
442 428
442 430
442 431
442 432
442 433
442 435
442 436
442 437
442 438
442 440
442 441
443 424
443 444
443 452
443 458
444 443
444 445
444 446
444 458
445 444
445 446
445 450
445 455
446 444
446 445
446 447
446 458
447 446
447 448
447 453
447 458
448 447
448 449
448 457
448 458
449 448
449 450
449 451
449 458
450 445
450 449
450 451
450 455
451 449
451 450
451 452
451 458
452 443
452 451
452 453
452 458
453 447
453 452
453 454
453 458
454 453
454 455
454 456
454 458
455 445
455 450
455 454
455 456
456 454
456 455
456 457
456 458
457 448
457 456
457 458
457 489
458 424
458 443
458 444
458 446
458 447
458 448
458 449
458 451
458 452
458 453
458 454
458 456
458 457
458 505
459 425
459 460
459 468
459 474
460 459
460 461
460 462
460 474
461 460
461 462
461 466
461 471
462 460
462 461
462 463
462 474
463 462
463 464
463 469
463 474
464 463
464 465
464 473
464 474
465 464
465 466
465 467
465 474
466 461
466 465
466 467
466 471
467 465
467 466
467 468
467 474
468 459
468 467
468 469
468 474
469 463
469 468
469 470
469 474
470 469
470 471
470 472
470 474
471 461
471 466
471 470
471 472
472 470
472 471
472 473
472 474
473 426
473 464
473 472
473 474
474 426
474 459
474 460
474 462
474 463
474 464
474 465
474 467
474 468
474 469
474 470
474 472
474 473
474 506
475 425
475 476
475 484
475 490
476 475
476 477
476 478
476 490
477 476
477 478
477 482
477 487
478 476
478 477
478 479
478 490
479 478
479 480
479 485
479 490
480 479
480 481
480 489
480 490
481 480
481 482
481 483
481 490
482 477
482 481
482 483
482 487
483 481
483 482
483 484
483 490
484 475
484 483
484 485
484 490
485 479
485 484
485 486
485 490
486 485
486 487
486 488
486 490
487 477
487 482
487 486
487 488
488 486
488 487
488 489
488 490
489 457
489 480
489 488
489 490
490 357
490 427
490 475
490 476
490 478
490 479
490 480
490 481
490 483
490 484
490 485
490 486
490 488
490 489
491 423
491 492
491 500
491 506
492 491
492 493
492 494
492 506
493 492
493 494
493 498
493 503
494 492
494 493
494 495
494 506
495 494
495 496
495 501
495 506
496 495
496 497
496 505
496 506
497 496
497 498
497 499
497 506
498 493
498 497
498 499
498 503
499 497
499 498
499 500
499 506
500 491
500 499
500 501
500 506
501 495
501 500
501 502
501 506
502 501
502 503
502 504
502 506
503 493
503 498
503 502
503 504
504 502
504 503
504 505
504 506
505 458
505 496
505 504
505 506
506 406
506 474
506 491
506 492
506 494
506 495
506 496
506 497
506 499
506 500
506 501
506 502
506 504
506 505
507 374
507 390
507 423
507 425
508 509
508 510
508 525
508 526
509 508
509 510
509 527
509 542
510 508
510 509
510 557
510 558
511 512
511 520
511 526
511 574
512 511
512 513
512 514
512 526
513 512
513 514
513 518
513 523
514 512
514 513
514 515
514 526
515 514
515 516
515 521
515 526
516 515
516 517
516 525
516 526
517 516
517 518
517 519
517 526
518 513
518 517
518 519
518 523
519 517
519 518
519 520
519 526
520 511
520 519
520 521
520 526
521 515
521 520
521 522
521 526
522 521
522 523
522 524
522 526
523 513
523 518
523 522
523 524
524 522
524 523
524 525
524 526
525 508
525 516
525 524
525 526
526 508
526 511
526 512
526 514
526 515
526 516
526 517
526 519
526 520
526 521
526 522
526 524
526 525
526 659
527 509
527 528
527 536
527 542
528 527
528 529
528 530
528 542
529 528
529 530
529 534
529 539
530 528
530 529
530 531
530 542
531 530
531 532
531 537
531 542
532 531
532 533
532 541
532 542
533 532
533 534
533 535
533 542
534 529
534 533
534 535
534 539
535 533
535 534
535 536
535 542
536 527
536 535
536 537
536 542
537 531
537 536
537 538
537 542
538 537
538 539
538 540
538 542
539 529
539 534
539 538
539 540
540 538
540 539
540 541
540 542
541 532
541 540
541 542
541 573
542 509
542 527
542 528
542 530
542 531
542 532
542 533
542 535
542 536
542 537
542 538
542 540
542 541
542 589
543 544
543 552
543 558
543 676
544 543
544 545
544 546
544 558
545 544
545 546
545 550
545 555
546 544
546 545
546 547
546 558
547 546
547 548
547 553
547 558
548 547
548 549
548 557
548 558
549 548
549 550
549 551
549 558
550 545
550 549
550 551
550 555
551 549
551 550
551 552
551 558
552 543
552 551
552 553
552 558
553 547
553 552
553 554
553 558
554 553
554 555
554 556
554 558
555 545
555 550
555 554
555 556
556 554
556 555
556 557
556 558
557 510
557 548
557 556
557 558
558 510
558 543
558 544
558 546
558 547
558 548
558 549
558 551
558 552
558 553
558 554
558 556
558 557
558 590
559 560
559 568
559 574
559 676
560 559
560 561
560 562
560 574
561 560
561 562
561 566
561 571
562 560
562 561
562 563
562 574
563 562
563 564
563 569
563 574
564 563
564 565
564 573
564 574
565 564
565 566
565 567
565 574
566 561
566 565
566 567
566 571
567 565
567 566
567 568
567 574
568 559
568 567
568 569
568 574
569 563
569 568
569 570
569 574
570 569
570 571
570 572
570 574
571 561
571 566
571 570
571 572
572 570
572 571
572 573
572 574
573 541
573 564
573 572
573 574
574 421
574 511
574 559
574 560
574 562
574 563
574 564
574 565
574 567
574 568
574 569
574 570
574 572
574 573
575 576
575 584
575 590
575 675
576 575
576 577
576 578
576 590
577 576
577 578
577 582
577 587
578 576
578 577
578 579
578 590
579 578
579 580
579 585
579 590
580 579
580 581
580 589
580 590
581 580
581 582
581 583
581 590
582 577
582 581
582 583
582 587
583 581
583 582
583 584
583 590
584 575
584 583
584 585
584 590
585 579
585 584
585 586
585 590
586 585
586 587
586 588
586 590
587 577
587 582
587 586
587 588
588 586
588 587
588 589
588 590
589 542
589 580
589 588
589 590
590 67
590 558
590 575
590 576
590 578
590 579
590 580
590 581
590 583
590 584
590 585
590 586
590 588
590 589
591 593
591 595
591 610
591 611
592 594
592 611
592 660
592 676
593 591
593 595
593 612
593 627
594 592
594 628
594 644
594 676
595 591
595 593
595 642
595 643
596 597
596 605
596 611
596 659
597 596
597 598
597 599
597 611
598 597
598 599
598 603
598 608
599 597
599 598
599 600
599 611
600 599
600 601
600 606
600 611
601 600
601 602
601 610
601 611
602 601
602 603
602 604
602 611
603 598
603 602
603 604
603 608
604 602
604 603
604 605
604 611
605 596
605 604
605 606
605 611
606 600
606 605
606 607
606 611
607 606
607 608
607 609
607 611
608 598
608 603
608 607
608 609
609 607
609 608
609 610
609 611
610 591
610 601
610 609
610 611
611 591
611 592
611 596
611 597
611 599
611 600
611 601
611 602
611 604
611 605
611 606
611 607
611 609
611 610
612 593
612 613
612 621
612 627
613 612
613 614
613 615
613 627
614 613
614 615
614 619
614 624
615 613
615 614
615 616
615 627
616 615
616 617
616 622
616 627
617 616
617 618
617 626
617 627
618 617
618 619
618 620
618 627
619 614
619 618
619 620
619 624
620 618
620 619
620 621
620 627
621 612
621 620
621 622
621 627
622 616
622 621
622 623
622 627
623 622
623 624
623 625
623 627
624 614
624 619
624 623
624 625
625 623
625 624
625 626
625 627
626 617
626 625
626 627
626 658
627 593
627 612
627 613
627 615
627 616
627 617
627 618
627 620
627 621
627 622
627 623
627 625
627 626
627 674
628 594
628 629
628 637
628 643
629 628
629 630
629 631
629 643
630 629
630 631
630 635
630 640
631 629
631 630
631 632
631 643
632 631
632 633
632 638
632 643
633 632
633 634
633 642
633 643
634 633
634 635
634 636
634 643
635 630
635 634
635 636
635 640
636 634
636 635
636 637
636 643
637 628
637 636
637 638
637 643
638 632
638 637
638 639
638 643
639 638
639 640
639 641
639 643
640 630
640 635
640 639
640 641
641 639
641 640
641 642
641 643
642 595
642 633
642 641
642 643
643 595
643 628
643 629
643 631
643 632
643 633
643 634
643 636
643 637
643 638
643 639
643 641
643 642
643 675
644 594
644 645
644 653
644 659
645 644
645 646
645 647
645 659
646 645
646 647
646 651
646 656
647 645
647 646
647 648
647 659
648 647
648 649
648 654
648 659
649 648
649 650
649 658
649 659
650 649
650 651
650 652
650 659
651 646
651 650
651 652
651 656
652 650
652 651
652 653
652 659
653 644
653 652
653 654
653 659
654 648
654 653
654 655
654 659
655 654
655 656
655 657
655 659
656 646
656 651
656 655
656 657
657 655
657 656
657 658
657 659
658 626
658 649
658 657
658 659
659 526
659 596
659 644
659 645
659 647
659 648
659 649
659 650
659 652
659 653
659 654
659 655
659 657
659 658
660 592
660 661
660 669
660 675
661 660
661 662
661 663
661 675
662 661
662 663
662 667
662 672
663 661
663 662
663 664
663 675
664 663
664 665
664 670
664 675
665 664
665 666
665 674
665 675
666 665
666 667
666 668
666 675
667 662
667 666
667 668
667 672
668 666
668 667
668 669
668 675
669 660
669 668
669 670
669 675
670 664
670 669
670 671
670 675
671 670
671 672
671 673
671 675
672 662
672 667
672 671
672 673
673 671
673 672
673 674
673 675
674 627
674 665
674 673
674 675
675 575
675 643
675 660
675 661
675 663
675 664
675 665
675 666
675 668
675 669
675 670
675 671
675 673
675 674
676 543
676 559
676 592
676 594
-1
EOF